start_domain = 9;
target_domain = 6;
vnflist_size = 9;
vnflist = [10,3,4,2,1,1,2,4,10];
vnf_arcs = [|1,2|2,3|3,4|4,5|4,6|4,7|7,8|8,9|];
proximity_to_source = [0,0,1,1,0,0,0,0,0];
proximity_to_destination = [0,0,0,0,0,0,1,1,0];
n_domain_constraints = 1;
domain_constraints = [|3,1,1,1|];
